W=6;
H=3;

MAX_TIME=7;
MAX_TRACKS=0;
SEMAPHORE_SUPPLY=1;

TARGET=(3,6);

TRAINS=[(3,1,RIGHT),(1,4,DOWN)];
DECOYS=[];

INIT_POS=[
(1,4,STRAIGHT_TD),
(2,4,STRAIGHT_TD),
(3,1,STRAIGHT_RL),
(3,2,STRAIGHT_RL),
(3,3,STRAIGHT_RL),
(3,4,SWITCH_L_R_T),
(3,5,STRAIGHT_RL),
(3,6,STRAIGHT_RL),
];
TUNNEL_PAIRS=[];

GATES=[];
ACTIVATIONS=[];

DSWITCHES=[];
STATIONS=[];
